
--- Job main.gms Start 01/13/25 17:57:00 44.4.0 06604687 WEX-WEI x86 64bit/MS Windows
--- Applying:
    C:\GAMS\44\gmsprmNT.txt
--- GAMS Parameters defined
    Input "C:\Users\sebas\Documents\CloudDrive\Uni\WS24\Research Project\gams\main.gms"
    PageSize 0
    ScrDir "C:\Users\sebas\Documents\CloudDrive\Uni\WS24\Research Project\gams\225a\"
    SysDir C:\GAMS\44\
    LogOption 3
    ErrMsg 1
    ErrorLog 99
    IDE 1
    LstTitleLeftAligned 1
Licensee: Course License                                 S241105|0002AO-GEN
          Dresden University of Technology                          DCE3851
          C:\Users\sebas\Documents\GAMS\gamslice.txt
          License Admin: Hannes Hobbie, hannes.hobbie@tu-dresden.de        
          Course license for use within the course and related course work
Processor information: 1 socket(s), 8 core(s), and 16 thread(s) available
GAMS 44.4.0   Copyright (C) 1987-2023 GAMS Development. All rights reserved
--- Starting compilation
--- main.gms(1) 2 Mb
--- . testData.gms(26) 3 Mb
--- Initialize embedded library embconnectcclib64.dll
--- Execute embedded library embconnectcclib64.dll
--- . testData.gms(39) 3 Mb
--- main.gms(40) 3 Mb
--- Starting execution: elapsed 0:00:01.825
--- Generating LP model test
--- main.gms(79) 4 Mb
---   97 rows  73 columns  214 non-zeroes
--- Range statistics (absolute non-zero finite values)
--- RHS       [min, max] : [ 1.000E+01, 1.000E+02] - Zero values observed as well
--- Bound     [min, max] : [        NA,        NA] - Zero values observed as well
--- Matrix    [min, max] : [ 1.000E+00, 1.000E+01]
--- Executing CPLEX (Solvelink=2): elapsed 0:00:01.836

IBM ILOG CPLEX   44.4.0 06604687 Sep 19, 2023          WEI x86 64bit/MS Window

--- GAMS/CPLEX licensed for continuous and discrete problems.
--- GMO setup time: 0.00s
--- GMO memory 0.52 Mb (peak 0.52 Mb)
--- Dictionary memory 0.00 Mb
--- Cplex 22.1.1.0 link memory 0.00 Mb (peak 0.01 Mb)
--- Starting Cplex

Version identifier: 22.1.1.0 | 2022-11-27 | 9160aff4d
CPXPARAM_Advance                                 0
CPXPARAM_Threads                                 1
CPXPARAM_MIP_Display                             4
CPXPARAM_MIP_Pool_Capacity                       0
CPXPARAM_MIP_Tolerances_AbsMIPGap                0
Tried aggregator 1 time.
LP Presolve eliminated 77 rows and 40 columns.
Aggregator did 5 substitutions.
Reduced LP has 14 rows, 28 columns, and 41 nonzeros.
Presolve time = 0.00 sec. (0.07 ticks)
Initializing dual steep norms . . .

Iteration log . . .
Iteration:     1   Dual objective     =          7700.000000

--- LP status (1): optimal.
--- Cplex Time: 0.00sec (det. 0.11 ticks)


Optimal solution found
Objective:         5100.000000

--- Reading solution for model test
*** Status: Normal completion
--- Job main.gms Stop 01/13/25 17:57:02 elapsed 0:00:02.011
